# Random Circle Problem
param d := 0.05; 
param n := 10; 
param radius := 2.00; 
param v0 := 
1 5.50
2 5.93
3 5.89
4 5.24
5 5.75
6 5.13
7 5.11
8 5.62
9 5.32
10 5.83
;
param cap := 
1 2.79341
2 4.26192
3 4.68873
4 5.43624
5 5.56246
6 0.26982
7 0.11171
8 1.12303
9 2.27989
10 2.27500
;
param x0 := 
1 2.00
2 1.62
3 0.62
4 -0.62
5 -1.62
6 -2.00
7 -1.62
8 -0.62
9 0.62
10 1.62
;
param y0 := 
1 -0.00
2 1.18
3 1.90
4 1.90
5 1.18
6 0.00
7 -1.18
8 -1.90
9 -1.90
10 -1.18
;
